\ LP format - for model browsing. Use MPS format to capture full model detail.
Maximize
  8 x_1 + 6 x_2 + 6 x_3 + 7 x_4 + x_5 + 10 x_6 + 5 x_7 + 5 x_8 + 10 x_9
   + 5 x_10 + 2 x_11 + 8 x_12 + 9 x_13 + 6 x_14 + 8 x_15
Subject To
 C_1: 7 x_1 + 4 x_2 + 7 x_3 + 3 x_4 + x_5 + 3 x_6 + 3 x_7 + 9 x_8 + 2 x_9
   + 2 x_10 + 10 x_11 + 2 x_12 + 5 x_13 + 6 x_14 + 5 x_15 <= 34
 C_2: 6 x_1 + 3 x_2 + 3 x_3 + 3 x_4 + 2 x_5 + 5 x_6 + 3 x_7 + 6 x_8
   + 10 x_9 + 4 x_10 + 2 x_11 + 3 x_12 + 2 x_13 + 2 x_14 + x_15 <= 27
 C_3: 9 x_1 + 8 x_2 + 6 x_3 + 7 x_4 + x_5 + 6 x_6 + x_7 + 5 x_8 + 4 x_9
   + 4 x_10 + 6 x_11 + 4 x_12 + 5 x_13 + 3 x_14 + x_15 <= 35
 C_4: 2 x_1 + 8 x_2 + 6 x_3 + 6 x_4 + 2 x_5 + 7 x_6 + 2 x_7 + 4 x_8 + 4 x_9
   + x_10 + 8 x_11 + 7 x_12 + 6 x_13 + x_14 + 9 x_15 <= 36
 C_5: 6 x_1 + 9 x_2 + 6 x_3 + x_4 + 7 x_5 + 8 x_6 + 6 x_7 + 8 x_8 + 3 x_9
   + x_10 + x_11 + 10 x_12 + 6 x_13 + 8 x_14 + 2 x_15 <= 41
Bounds
Binaries
 x_1 x_2 x_3 x_4 x_5 x_6 x_7 x_8 x_9 x_10 x_11 x_12 x_13 x_14 x_15
End
